c Arquivo convertido de dwt__198.mtx
p edge 198 597
e 1 2
e 1 34
e 1 35
e 2 3
e 2 34
e 2 35
e 2 36
e 3 4
e 3 35
e 3 36
e 3 37
e 4 5
e 4 36
e 4 37
e 4 38
e 5 6
e 5 37
e 5 38
e 5 39
e 6 7
e 6 38
e 6 39
e 6 40
e 7 8
e 7 39
e 7 40
e 7 41
e 8 9
e 8 40
e 8 41
e 8 42
e 9 10
e 9 41
e 9 42
e 9 43
e 10 11
e 10 42
e 10 43
e 10 44
e 11 12
e 11 43
e 11 44
e 11 45
e 12 44
e 12 45
e 13 14
e 13 46
e 13 47
e 14 15
e 14 46
e 14 47
e 14 48
e 15 16
e 15 47
e 15 48
e 15 49
e 16 17
e 16 48
e 16 49
e 16 50
e 17 18
e 17 49
e 17 50
e 17 51
e 18 50
e 18 51
e 19 52
e 20 21
e 20 53
e 20 54
e 21 22
e 21 53
e 21 54
e 21 55
e 22 23
e 22 54
e 22 55
e 22 56
e 23 24
e 23 55
e 23 56
e 23 57
e 24 25
e 24 56
e 24 57
e 24 58
e 25 26
e 25 57
e 25 58
e 25 59
e 26 58
e 26 59
e 27 60
e 28 29
e 28 61
e 28 62
e 29 30
e 29 61
e 29 62
e 29 63
e 30 31
e 30 33
e 30 62
e 30 63
e 30 64
e 30 66
e 31 32
e 31 63
e 31 64
e 31 65
e 32 64
e 32 65
e 33 63
e 33 66
e 34 35
e 34 67
e 34 68
e 35 36
e 35 67
e 35 68
e 35 69
e 36 37
e 36 68
e 36 69
e 36 70
e 37 38
e 37 69
e 37 70
e 37 71
e 38 39
e 38 70
e 38 71
e 38 72
e 39 40
e 39 71
e 39 72
e 39 73
e 40 41
e 40 72
e 40 73
e 40 74
e 41 42
e 41 73
e 41 74
e 41 75
e 42 43
e 42 74
e 42 75
e 42 76
e 43 44
e 43 75
e 43 76
e 43 77
e 44 45
e 44 76
e 44 77
e 44 78
e 45 77
e 45 78
e 46 47
e 46 79
e 46 80
e 47 48
e 47 79
e 47 80
e 47 81
e 48 49
e 48 80
e 48 81
e 48 82
e 49 50
e 49 81
e 49 82
e 49 83
e 50 51
e 50 82
e 50 83
e 50 84
e 51 83
e 51 84
e 52 85
e 53 54
e 53 86
e 53 87
e 54 55
e 54 86
e 54 87
e 54 88
e 55 56
e 55 87
e 55 88
e 55 89
e 56 57
e 56 88
e 56 89
e 56 90
e 57 58
e 57 89
e 57 90
e 57 91
e 58 59
e 58 90
e 58 91
e 58 92
e 59 91
e 59 92
e 60 93
e 61 62
e 61 94
e 61 95
e 62 63
e 62 94
e 62 95
e 62 96
e 63 64
e 63 66
e 63 95
e 63 96
e 63 97
e 63 99
e 64 65
e 64 96
e 64 97
e 64 98
e 65 97
e 65 98
e 66 96
e 66 99
e 67 68
e 67 100
e 67 101
e 68 69
e 68 100
e 68 101
e 68 102
e 69 70
e 69 101
e 69 102
e 69 103
e 70 71
e 70 102
e 70 103
e 70 104
e 71 72
e 71 103
e 71 104
e 71 105
e 72 73
e 72 104
e 72 105
e 72 106
e 73 74
e 73 105
e 73 106
e 73 107
e 74 75
e 74 106
e 74 107
e 74 108
e 75 76
e 75 107
e 75 108
e 75 109
e 76 77
e 76 108
e 76 109
e 76 110
e 77 78
e 77 109
e 77 110
e 77 111
e 78 110
e 78 111
e 79 80
e 79 112
e 79 113
e 80 81
e 80 112
e 80 113
e 80 114
e 81 82
e 81 113
e 81 114
e 81 115
e 82 83
e 82 114
e 82 115
e 82 116
e 83 84
e 83 115
e 83 116
e 83 117
e 84 116
e 84 117
e 85 118
e 86 87
e 86 119
e 86 120
e 87 88
e 87 119
e 87 120
e 87 121
e 88 89
e 88 120
e 88 121
e 88 122
e 89 90
e 89 121
e 89 122
e 89 123
e 90 91
e 90 122
e 90 123
e 90 124
e 91 92
e 91 123
e 91 124
e 91 125
e 92 124
e 92 125
e 93 126
e 94 95
e 94 127
e 94 128
e 95 96
e 95 127
e 95 128
e 95 129
e 96 97
e 96 99
e 96 128
e 96 129
e 96 130
e 96 132
e 97 98
e 97 129
e 97 130
e 97 131
e 98 130
e 98 131
e 99 129
e 99 132
e 100 101
e 100 133
e 100 134
e 101 102
e 101 133
e 101 134
e 101 135
e 102 103
e 102 134
e 102 135
e 102 136
e 103 104
e 103 135
e 103 136
e 103 137
e 104 105
e 104 136
e 104 137
e 104 138
e 105 106
e 105 137
e 105 138
e 105 139
e 106 107
e 106 138
e 106 139
e 106 140
e 107 108
e 107 139
e 107 140
e 107 141
e 108 109
e 108 140
e 108 141
e 108 142
e 109 110
e 109 141
e 109 142
e 109 143
e 110 111
e 110 142
e 110 143
e 110 144
e 111 143
e 111 144
e 112 113
e 112 145
e 112 146
e 113 114
e 113 145
e 113 146
e 113 147
e 114 115
e 114 146
e 114 147
e 114 148
e 115 116
e 115 147
e 115 148
e 115 149
e 116 117
e 116 148
e 116 149
e 116 150
e 117 149
e 117 150
e 118 151
e 119 120
e 119 152
e 119 153
e 120 121
e 120 152
e 120 153
e 120 154
e 121 122
e 121 153
e 121 154
e 121 155
e 122 123
e 122 154
e 122 155
e 122 156
e 123 124
e 123 155
e 123 156
e 123 157
e 124 125
e 124 156
e 124 157
e 124 158
e 125 157
e 125 158
e 126 159
e 127 128
e 127 160
e 127 161
e 128 129
e 128 160
e 128 161
e 128 162
e 129 130
e 129 132
e 129 161
e 129 162
e 129 163
e 129 165
e 130 131
e 130 162
e 130 163
e 130 164
e 131 163
e 131 164
e 132 162
e 132 165
e 133 134
e 133 166
e 133 167
e 134 135
e 134 166
e 134 167
e 134 168
e 135 136
e 135 167
e 135 168
e 135 169
e 136 137
e 136 168
e 136 169
e 136 170
e 137 138
e 137 169
e 137 170
e 137 171
e 138 139
e 138 170
e 138 171
e 138 172
e 139 140
e 139 171
e 139 172
e 139 173
e 140 141
e 140 172
e 140 173
e 140 174
e 141 142
e 141 173
e 141 174
e 141 175
e 142 143
e 142 174
e 142 175
e 142 176
e 143 144
e 143 175
e 143 176
e 143 177
e 144 176
e 144 177
e 145 146
e 145 178
e 145 179
e 146 147
e 146 178
e 146 179
e 146 180
e 147 148
e 147 179
e 147 180
e 147 181
e 148 149
e 148 180
e 148 181
e 148 182
e 149 150
e 149 181
e 149 182
e 149 183
e 150 182
e 150 183
e 151 184
e 152 153
e 152 185
e 152 186
e 153 154
e 153 185
e 153 186
e 153 187
e 154 155
e 154 186
e 154 187
e 154 188
e 155 156
e 155 187
e 155 188
e 155 189
e 156 157
e 156 188
e 156 189
e 156 190
e 157 158
e 157 189
e 157 190
e 157 191
e 158 190
e 158 191
e 159 192
e 160 161
e 160 193
e 160 194
e 161 162
e 161 193
e 161 194
e 161 195
e 162 163
e 162 165
e 162 194
e 162 195
e 162 196
e 162 198
e 163 164
e 163 195
e 163 196
e 163 197
e 164 196
e 164 197
e 165 195
e 165 198
e 166 167
e 167 168
e 168 169
e 169 170
e 170 171
e 171 172
e 172 173
e 173 174
e 174 175
e 175 176
e 176 177
e 178 179
e 179 180
e 180 181
e 181 182
e 182 183
e 185 186
e 186 187
e 187 188
e 188 189
e 189 190
e 190 191
e 193 194
e 194 195
e 195 196
e 195 198
e 196 197
